c 220_4_checker.cnf
c
c field = 220
c formula set type = 4_checker
c
p cnf 5 26
430 
432 
434 
436 
-428 
431 
433 
435 
437 
-429 
430 
432 
434 
436 
-440 
431 
433 
435 
437 
-441 
432 
434 
436 
440 
-430 
433 
435 
437 
441 
-431 
432 
434 
436 
440 
-442 
433 
435 
437 
441 
-443 
434 
436 
440 
442 
-432 
435 
437 
441 
443 
-433 
434 
436 
440 
442 
-444 
435 
437 
441 
443 
-445 
436 
440 
442 
444 
-434 
437 
441 
443 
445 
-435 
436 
440 
442 
444 
-446 
437 
441 
443 
445 
-447 
440 
442 
444 
446 
-436 
441 
443 
445 
447 
-437 
440 
442 
444 
446 
-448 
441 
443 
445 
447 
-449 
318 
348 
378 
408 
-288 
319 
349 
379 
409 
-289 
310 
342 
374 
406 
-278 
311 
343 
375 
407 
-279 
326 
354 
382 
410 
-298 
327 
355 
383 
411 
-299 
